25 40
1 2 4
1 6 4
2 3 3
2 7 1
3 4 2
3 8 2
4 5 2
4 9 2
5 10 5
6 7 2
6 11 1
7 8 5
7 12 3
8 9 1
8 13 1
9 10 2
9 14 4
10 15 2
11 12 5
11 16 5
12 13 3
12 17 5
13 14 1
13 18 2
14 15 2
14 19 1
15 20 4
16 17 5
16 21 3
17 18 4
17 22 5
18 19 4
18 23 3
19 20 2
19 24 5
20 25 3
21 22 3
22 23 1
23 24 3
24 25 5
